peakDumbCharging = 7400; 
Machine = anon_enum(16); 
machineSpeed = [3700,3700,3700,3700,3700,3700,3700,3700,3700,3700,3700,3700,3700,3700,3700,3700]; 
machineLoad = [3700,3700,3700,3700,3700,3700,3700,3700,3700,3700,3700,3700,3700,3700,3700,3700]; 
Car = anon_enum(8); 
demandCar = [18520,10440,9840,29040,4920,14240,3560,16121]; 
arrivalCar = [73,69,66,55,53,50,49,41]; 
departureCar = [81,73,72,69,63,55,53,47]; 
